p cnf 21 11
a 1 2 3 4 5 6 0
e 7 8 9 0
a 10 0
e 11 12 13 14 0
a 15 16 0
e 17 0
a 18 19 0
e 20 21 0
2 -17 16 9 -12 0
20 -8 18 -14 -4 0
6 -1 18 0
5 10 20 4 0
16 -14 0
8 19 4 -6 9 0
19 -9 0
9 -8 20 4 19 0
-9 -20 16 5 0
7 -13 -17 -14 0
-17 -11 4 -8 0
